!chkfile!
!nprocs!

# b3lyp/6-31+G(d,p) opt freq 

Step 1:
!title!

0 1
!coordinates!

--link1--
!chkfile!
%nprocshared=2

# b3lyp/6-311++G(2d,2p) geom=allcheck integral=(grid=ultrafine) scf=(verytight,diis,xqc) nmr

Step 2
